
Gurobi 13.0.0 (win64, gurobi_cl) logging started Fri Nov 14 14:01:01 2025

Set parameter LicenseID to value 2705898
Set parameter LogFile to value "gurobi.log"
Using license file C:\Users\250010153\gurobi.lic
